000 -99 000 000 -99 -99 000 -99 -99 -99 -99 -99 -99 000 000 -99 -99 -99 -99 -99 -99 -99 -99 -99 -99 -99 000 -99 000 000 000
000 -99 -99 000 000 -99 000 000 -99 -99 -99 -99 -99 000 000 -99 -99 -99 -99 -99 -99 -99 -99 -99 -99 000 000 -99 -99 -99 000
000 -99 000 000 000 -99 -99 000 000 -99 -99 -99 -99 -99 000 -99 -99 -99 -99 -99 -99 -99 000 000 -99 000 000 000 000 -99 000
-99 000 000 000 000 000 000 000 000 -99 -99 -99 -99 -99 000 000 -99 -99 -99 -99 -99 000 000 000 -99 000 000 000 000 -99 -99
-99 000 000 000 000 000 000 000 000 -99 -99 -99 -99 -99 -99 000 000 -99 -99 -99 000 -99 000 000 000 000 000 000 000 -99 -99
000 000 000 000 000 000 000 000 000 000 -99 -99 -99 -99 -99 000 000 -99 -99 -99 -99 000 000 000 000 000 000 000 000 -99 -99
000 000 000 000 000 000 000 000 000 000 -99 -99 -99 -99 000 000 000 -99 -99 -99 -99 000 000 000 000 000 -99 -99 -99 -99 -99
000 000 000 000 000 000 000 000 000 000 -99 -99 -99 -99 -99 000 000 -99 -99 -99 -99 -99 -99 000 000 000 -99 -99 000 000 000
000 000 000 000 000 000 000 -99 000 000 -99 -99 -99 -99 -99 -99 -99 -99 -99 -99 000 000 000 000 000 000 -99 -99 000 000 000
000 000 000 000 000 000 -99 000 000 000 000 -99 -99 -99 -99 -99 -99 000 000 -99 000 000 -99 -99 000 000 000 -99 000 000 000
000 000 000 000 000 -99 000 000 000 000 000 000 -99 -99 017 017 -99 -99 000 -99 000 000 000 000 000 000 000 -99 000 000 000
000 000 000 000 000 000 000 000 -99 000 000 000 -99 -99 017 052 -99 000 000 000 000 000 000 000 000 000 000 000 000 000 000
000 000 000 000 000 000 000 000 000 -99 000 000 -99 -99 152 179 -99 000 000 000 -99 -99 000 -99 000 000 000 000 -99 000 000
000 000 000 000 000 000 000 000 -99 -99 000 000 -99 -99 211 096 -99 000 000 -99 -99 -99 000 -99 000 000 000 -99 -99 000 000
-99 000 000 000 000 000 000 000 -99 -99 -99 -99 -99 000 044 044 -99 -99 000 -99 -99 -99 000 -99 000 000 000 -99 -99 000 000
000 000 000 000 000 000 000 000 -99 -99 -99 -99 -99 000 000 -99 -99 -99 000 -99 -99 -99 000 -99 000 000 -99 -99 000 000 000
000 000 000 000 -99 000 000 000 -99 -99 -99 -99 -99 000 000 -99 -99 000 -99 -99 -99 -99 000 -99 -99 000 000 -99 -99 000 000
000 000 000 000 -99 000 000 000 000 -99 -99 -99 -99 000 000 -99 000 000 -99 -99 -99 -99 000 000 -99 000 -99 -99 -99 000 000
000 000 000 000 -99 000 000 000 000 -99 -99 -99 -99 -99 000 -99 000 000 -99 -99 -99 -99 000 -99 -99 -99 -99 -99 000 000 000
000 000 000 000 000 -99 -99 000 000 -99 -99 -99 -99 -99 -99 000 000 000 -99 -99 -99 -99 000 -99 -99 -99 -99 000 000 000 000
000 000 000 000 000 000 000 000 000 -99 -99 -99 -99 -99 -99 000 000 000 -99 -99 -99 -99 -99 -99 -99 -99 -99 000 000 -99 -99
000 000 -99 000 000 000 000 000 000 -99 -99 -99 -99 -99 -99 -99 000 000 -99 -99 -99 -99 000 -99 -99 -99 -99 -99 -99 -99 -99
000 000 000 000 000 000 000 000 000 -99 -99 -99 -99 -99 -99 -99 000 000 -99 -99 -99 -99 000 -99 -99 -99 -99 -99 -99 -99 -99
000 000 000 000 000 -99 000 000 000 -99 -99 -99 -99 -99 -99 -99 000 000 -99 -99 -99 -99 000 -99 -99 -99 -99 -99 -99 -99 -99
000 000 000 000 000 000 000 000 000 -99 -99 -99 -99 -99 -99 000 000 000 000 -99 000 000 000 -99 -99 -99 -99 -99 -99 -99 -99
-99 -99 000 000 000 000 -99 000 000 -99 -99 -99 -99 -99 -99 000 000 000 000 -99 000 000 000 -99 -99 -99 -99 -99 -99 -99 000
000 -99 -99 000 000 000 000 000 000 -99 -99 -99 -99 -99 -99 000 000 000 000 -99 -99 000 000 -99 -99 -99 -99 -99 -99 000 000
000 -99 -99 000 -99 -99 000 000 -99 -99 -99 -99 -99 -99 000 000 000 000 000 -99 -99 000 000 -99 -99 -99 -99 -99 -99 000 000
000 000 -99 -99 -99 000 000 000 000 -99 -99 -99 -99 -99 -99 000 000 000 000 -99 000 000 -99 -99 -99 -99 -99 -99 -99 -99 000
000 000 000 000 -99 000 000 000 000 -99 -99 -99 -99 -99 -99 000 000 000 000 -99 000 000 -99 000 000 000 -99 -99 -99 -99 -99
000 000 000 000 000 000 000 000 000 -99 -99 -99 -99 -99 -99 000 000 000 000 000 -99 000 -99 000 000 000 000 -99 -99 -99 -99
000 000 000 000 000 000 000 000 000 -99 -99 -99 -99 000 000 000 000 000 000 000 000 000 000 000 000 000 000 -99 -99 -99 -99
000 000 000 000 000 000 000 000 000 -99 -99 -99 -99 000 000 000 000 000 000 -99 000 000 000 000 000 000 -99 000 000 -99 000
-99 -99 000 000 000 000 000 000 -99 -99 -99 -99 -99 000 000 -99 000 000 000 -99 000 000 000 -99 000 000 000 -99 000 000 000
-99 -99 -99 000 000 000 000 000 -99 -99 -99 -99 -99 000 -99 000 000 000 -99 000 -99 000 -99 -99 000 000 000 000 000 000 000
000 000 000 000 000 -99 -99 -99 -99 000 -99 -99 -99 -99 -99 -99 000 000 000 000 000 000 -99 -99 000 000 000 000 -99 000 000
000 000 -99 000 000 -99 -99 -99 000 -99 -99 -99 -99 -99 000 000 000 000 000 000 -99 000 -99 000 000 000 000 -99 -99 -99 -99
000 000 -99 000 000 -99 -99 000 000 -99 -99 -99 -99 -99 000 000 000 000 000 -99 000 000 -99 000 000 000 000 -99 -99 -99 -99
000 000 -99 -99 000 000 000 000 -99 -99 -99 -99 -99 -99 000 000 000 000 -99 -99 000 000 000 000 000 -99 -99 -99 -99 000 -99
000 -99 -99 000 000 -99 -99 000 -99 -99 -99 -99 000 000 000 000 000 -99 -99 -99 000 -99 000 000 000 -99 -99 -99 -99 000 -99
-99 -99 -99 000 000 -99 -99 -99 -99 -99 -99 -99 000 000 000 000 -99 -99 -99 -99 000 -99 -99 -99 -99 -99 -99 -99 -99 000 -99
-99 -99 -99 -99 -99 -99 -99 -99 -99 -99 -99 -99 000 000 000 000 -99 -99 -99 -99 -99 -99 -99 -99 -99 -99 -99 -99 -99 000 -99
-99 -99 -99 -99 -99 -99 -99 -99 -99 -99 -99 000 000 -99 -99 -99 000 -99 -99 -99 -99 -99 -99 -99 -99 -99 -99 -99 -99 -99 -99
-99 -99 -99 -99 -99 -99 -99 -99 -99 -99 -99 000 000 -99 000 000 000 -99 -99 -99 -99 -99 -99 -99 -99 -99 -99 000 000 -99 -99
-99 -99 -99 -99 -99 -99 -99 -99 -99 -99 -99 000 000 -99 000 000 000 -99 -99 000 000 -99 -99 -99 -99 -99 000 000 000 -99 -99
-99 -99 -99 -99 -99 -99 -99 -99 -99 -99 -99 000 000 -99 -99 000 000 -99 -99 000 -99 -99 -99 -99 000 000 000 000 000 -99 -99
-99 -99 -99 -99 -99 -99 -99 -99 -99 -99 -99 000 000 -99 -99 -99 -99 -99 000 000 -99 -99 -99 -99 000 000 000 000 -99 -99 -99
-99 -99 -99 -99 -99 -99 -99 -99 -99 -99 -99 -99 -99 -99 -99 -99 -99 -99 -99 -99 -99 -99 -99 -99 000 000 000 000 000 -99 -99
-99 -99 -99 -99 -99 -99 -99 -99 -99 -99 -99 -99 -99 -99 -99 -99 -99 -99 -99 -99 -99 -99 -99 -99 -99 000 000 000 -99 -99 -99
-99 -99 -99 -99 -99 -99 -99 -99 -99 -99 -99 -99 -99 -99 -99 -99 -99 -99 -99 -99 -99 -99 -99 -99 -99 -99 000 000 -99 -99 -99
000 000 000 000 -99 -99 000 000 -99 -99 -99 -99 -99 -99 -99 -99 -99 -99 -99 -99 -99 -99 -99 -99 -99 -99 000 -99 -99 -99 -99
000 000 000 000 000 000 000 000 000 -99 -99 -99 -99 -99 -99 -99 -99 -99 -99 -99 -99 -99 -99 -99 -99 -99 -99 -99 -99 -99 -99
002 001 001 000 000 001 001 001 000 000 000 -99 -99 -99 -99 -99 -99 -99 -99 -99 -99 -99 -99 -99 -99 -99 -99 -99 -99 -99 -99
002 002 002 001 004 005 009 000 000 000 000 -99 -99 -99 -99 -99 -99 000 000 -99 -99 -99 -99 -99 -99 -99 -99 -99 -99 -99 -99
000 002 003 009 016 005 002 000 000 000 000 -99 -99 -99 -99 -99 -99 000 000 001 -99 -99 -99 -99 -99 -99 -99 -99 -99 -99 -99
